c colouring generated by benchmark framework
p edge 128 5198
v 1 41
v 2 5
v 3 45
v 4 48
v 5 67
v 6 15
v 7 25
v 8 57
v 9 38
v 10 30
v 11 68
v 12 55
v 13 0
v 14 67
v 15 54
v 16 49
v 17 73
v 18 32
v 19 28
v 20 62
v 21 11
v 22 50
v 23 59
v 24 36
v 25 29
v 26 30
v 27 44
v 28 27
v 29 53
v 30 1
v 31 1
v 32 10
v 33 70
v 34 65
v 35 9
v 36 3
v 37 0
v 38 7
v 39 54
v 40 6
v 41 34
v 42 25
v 43 20
v 44 29
v 45 71
v 46 33
v 47 22
v 48 59
v 49 47
v 50 3
v 51 64
v 52 22
v 53 70
v 54 36
v 55 52
v 56 26
v 57 48
v 58 2
v 59 42
v 60 49
v 61 48
v 62 69
v 63 15
v 64 17
v 65 7
v 66 65
v 67 50
v 68 51
v 69 11
v 70 35
v 71 66
v 72 58
v 73 12
v 74 23
v 75 55
v 76 72
v 77 63
v 78 39
v 79 38
v 80 3
v 81 13
v 82 52
v 83 53
v 84 4
v 85 43
v 86 41
v 87 66
v 88 14
v 89 60
v 90 42
v 91 61
v 92 24
v 93 58
v 94 10
v 95 6
v 96 45
v 97 4
v 98 33
v 99 13
v 100 31
v 101 16
v 102 6
v 103 2
v 104 35
v 105 26
v 106 12
v 107 9
v 108 37
v 109 40
v 110 56
v 111 18
v 112 39
v 113 32
v 114 47
v 115 21
v 116 73
v 117 19
v 118 40
v 119 25
v 120 11
v 121 34
v 122 43
v 123 46
v 124 33
v 125 68
v 126 8
v 127 64
v 128 63
